CMD:
./solvers/bin/cadical --plain --no-reduce -t 1600 ./data/cnfs//zipcpu-zipmmu-p31/zipcpu-zipmmu-p31.34.cnf

c --- [ banner ] -------------------------------------------------------------
c 
c CaDiCaL SAT Solver
c Copyright (c) 2016-2024
c A. Biere, M. Fleury, N. Froleyks, K. Fazekas, F. Pollitt, T. Faller
c JKU Linz, University of Freiburg, TU Wien
c 
c Version 2.1.3 5296d3d2a9bf48c154ab2acb5e44625776d821bf
c g++ (Gentoo 12.3.1_p20230526 p2) 12.3.1 20230526 -Wall -Wextra -O3 -DNDEBUG
c Sat Aug 9 07:26:21 PDT 2025 Linux cedar2.int.cedar.computecanada.ca 5.14.0-362.24.2.el9_3.x86_64 x86_64
c 
c --- [ limit ] --------------------------------------------------------------
c 
c setting time limit to 1600 seconds real time (due to '-t 1600')
c 
c --- [ parsing input ] ------------------------------------------------------
c 
c reading DIMACS file from './data/cnfs//zipcpu-zipmmu-p31/zipcpu-zipmmu-p31.34.cnf'
c opening file to read './data/cnfs//zipcpu-zipmmu-p31/zipcpu-zipmmu-p31.34.cnf'
c found 'p cnf 166588 486959' header
c parsed 486959 clauses in 0.10 seconds process time
c 
c --- [ options ] ------------------------------------------------------------
c 
c   --compact=false                (different from default 'true')
c   --decompose=false              (different from default 'true')
c   --deduplicate=false            (different from default 'true')
c   --elim=false                   (different from default 'true')
c   --probe=false                  (different from default 'true')
c   --reduce=false                 (different from default 'true')
c   --subsume=false                (different from default 'true')
c   --ternary=false                (different from default 'true')
c   --transred=false               (different from default 'true')
c   --vivify=false                 (different from default 'true')
c 
c --- [ solving ] ------------------------------------------------------------
c 
c time measured in process time since initialization
c 
c  seconds  reductions  redundant  irredundant
c         MB    restarts       trail       variables
c          level   conflicts       glue          remaining
c 
c *  0.10 79  0 0   0    0    0  0% 0 478180 160529 96%
c {  0.17 81  0 0   0    0    0  0% 0 478180 160529 96%
c i  0.17 82 41 0   0    2    1  4% 0 478180 160528 96%
c i  0.17 82 43 0   7  140  122  5% 4 478180 160521 96%
c i  0.20 82 36 0  24  264  241  5% 4 478180 160513 96%
c i  0.20 82 36 0  24  299  272  6% 4 478180 160512 96%
c i  0.20 82 36 0  24  300  272  6% 4 478180 160511 96%
c i  0.20 82 36 0  24  301  272  6% 4 478180 160508 96%
c i  0.20 82 36 0  24  302  272  6% 4 478180 160507 96%
c i  0.20 82 36 0  24  304  273  6% 4 478180 160499 96%
c i  0.21 82 36 0  24  346  307  6% 4 478180 160491 96%
c i  0.21 82 35 0  24  372  331  7% 4 478180 160478 96%
c i  0.22 82 33 0  24  468  415  7% 4 478180 160470 96%
c i  0.25 82 30 0  62  787  717  8% 4 478180 160454 96%
c i  0.26 82 30 0  72  827  755  8% 4 478180 160400 96%
c }  0.27 82 28 0 114 1001  919  8% 4 478180 160116 96%
c [  0.27 82  0 0 114 1001  919  0% 0 478180 160116 96%
c O  0.32 82 3489 0 114 1002  920 96% 4 478180 160116 96%
c i  0.44 83 1900 0 115 2661 2414 55% 8 478180 160108 96%
c i  0.44 83 1890 0 115 2669 2421 55% 8 478180 160106 96%
c 
c  seconds    reductions  redundant  irredundant
c         MB      restarts       trail       variables
c           level    conflicts       glue          remaining
c 
c ]  0.45 83 1571 0 115 3002 2659 46% 8 478180 160106 96%
c {  0.45 83 28 0 115 3002 2659  8% 4 478180 160106 96%
c F  0.45 83 28 0 116 3003 2660  8% 4 478180 160106 96%
c i  0.49 83 29 0 221 3550 3166  8% 4 478180 159535 96%
c i  0.51 83 30 0 276 3901 3473  8% 5 478180 159233 96%
c i  0.56 83 33 0 357 4709 4193  9% 5 478180 159226 96%
c i  0.56 83 33 0 357 4720 4203  9% 5 478180 159218 96%
c i  0.56 83 33 0 357 4722 4204  9% 5 478180 159211 96%
c i  0.56 83 33 0 357 4724 4205  9% 5 478180 159204 96%
c i  0.57 83 32 0 357 4915 4374  9% 5 478180 159195 96%
c i  0.60 84 31 0 398 5318 4737  9% 5 478180 159188 96%
c i  0.60 84 31 0 398 5343 4760  9% 5 478180 159175 96%
c i  0.60 84 31 0 398 5357 4771  9% 5 478180 159166 96%
c i  0.60 84 31 0 398 5401 4810  9% 5 478180 159165 96%
c i  0.61 84 31 0 402 5599 4992  9% 5 478180 159152 96%
c i  0.61 84 30 0 402 5668 5056  9% 4 478180 159135 96%
c i  0.62 84 31 0 406 5834 5213  9% 4 478180 159122 96%
c #  0.64 84 31 0 412 6004 5367  9% 4 478180 159122 96%
c }  0.71 84 30 0 580 7003 6270  9% 5 478180 159122 96%
c [  0.71 84 1571 0 580 7003 6270 46% 8 478180 159122 96%
c 
c  seconds   reductions   redundant  irredundant
c         MB     restarts        trail       variables
c           level    conflicts       glue          remaining
c 
c I  0.93 84 637 0 582 10005 8921 24% 7 478180 159122 96%
c i  0.96 85 568 0 583 10596 9313 22% 7 478180 158640 95%
c i  0.96 85 560 0 583 10673 9364 22% 7 478180 158637 95%
c i  0.96 85 556 0 583 10713 9375 22% 7 478180 158387 95%
c i  0.96 85 552 0 583 10752 9387 21% 7 478180 158381 95%
c i  0.96 85 549 0 583 10783 9406 21% 7 478180 158369 95%
c i  0.96 85 549 0 583 10787 9408 21% 7 478180 158336 95%
c i  0.96 85 549 0 583 10789 9409 21% 7 478180 158322 95%
c ]  0.96 85 549 0 583 10791 9409 21% 7 478180 158288 95%
c 0  0.96 85 549 0 583 10791 9409 21% 7 478180 158288 95%
c 
c --- [ result ] -------------------------------------------------------------
c 
s UNSATISFIABLE
c 
c --- [ run-time profiling ] -------------------------------------------------
c 
c process time taken by individual solving procedures
c (percentage relative to process time for solving)
c 
c         0.86   99.99% search
c         0.43   50.29% stable
c         0.36   41.97% unstable
c         0.10   11.62% parse
c         0.07    7.72% lucky
c         0.00    0.00% simplify
c   =================================
c         0.86   89.52% solve
c 
c last line shows process time for solving
c (percentage relative to total process time)
c 
c --- [ statistics ] ---------------------------------------------------------
c 
c chronological:              3028        28.06 %  of conflicts
c conflicts:                 10791     12530.93    per second
c decisions:                 35297     40988.26    per second
c fixed:                      8205         4.93 %  of all variables
c learned:                   10459        96.92 %  per conflict
c learned_lits:             236703       100.00 %  learned literals
c minimized:                     0         0.00 %  learned literals
c shrunken:                  45947        19.41 %  learned literals
c minishrunken:              43824        18.51 %  learned literals
c otfs:                         78         0.72 %  of conflict
c propagations:           12965335        15.06 M  per second
c rephased:                      4      2697.75    interval
c restarts:                    583        18.51    interval
c stabilizing:                   2        53.63 %  of conflicts
c subsumed:                   1015         0.21 %  of all clauses
c strengthened:                 76         0.02 %  of all clauses
c 
c seconds are measured in process time for solving
c 
c --- [ resources ] ----------------------------------------------------------
c 
c total process time since initialization:         0.96    seconds
c total real time since initialization:            0.97    seconds
c maximum resident set size of process:           82.40    MB
c 
c --- [ shutting down ] ------------------------------------------------------
c 
c exit 20
